(set-info :smt-lib-version 2.6)
(set-logic QF_NIA)
(set-info :source |
     Constraint systems stating that a matrix interpretation is
     compatible with a rewriting system (weakly compatible with
     all rules, strictly compatible with at least one).

     Contributed by Johannes Waldmann at HTKW Leipzig.
   |)
(set-info :category "crafted")
(set-info :status sat)
(declare-fun n0 () Int)
(assert (>= n0 0))
(declare-fun n1 () Int)
(assert (>= n1 0))
(declare-fun n2 () Int)
(assert (>= n2 0))
(declare-fun n3 () Int)
(assert (>= n3 0))
(declare-fun n4 () Int)
(assert (>= n4 0))
(declare-fun n5 () Int)
(assert (>= n5 0))
(declare-fun n6 () Int)
(assert (>= n6 0))
(declare-fun n7 () Int)
(assert (>= n7 0))
(declare-fun n8 () Int)
(assert (>= n8 0))
(declare-fun n9 () Int)
(assert (>= n9 0))
(declare-fun n10 () Int)
(assert (>= n10 0))
(declare-fun n11 () Int)
(assert (>= n11 0))
(declare-fun n12 () Int)
(assert (>= n12 0))
(declare-fun n13 () Int)
(assert (>= n13 0))
(declare-fun n14 () Int)
(assert (>= n14 0))
(declare-fun n15 () Int)
(assert (>= n15 0))
(declare-fun n16 () Int)
(assert (>= n16 0))
(declare-fun n17 () Int)
(assert (>= n17 0))
(declare-fun n18 () Int)
(assert (= n18 (* n14 n6)))
(declare-fun n19 () Int)
(assert (= n19 (* n15 n7)))
(declare-fun n20 () Int)
(assert (= n20 (* n16 n6)))
(declare-fun n21 () Int)
(assert (= n21 (* n17 n7)))
(declare-fun n22 () Int)
(assert (= n22 (+ n18 n19)))
(declare-fun n23 () Int)
(assert (= n23 (+ n20 n21)))
(declare-fun n24 () Int)
(assert (= n24 (+ n12 n22)))
(declare-fun n25 () Int)
(assert (= n25 (+ n13 n23)))
(declare-fun n26 () Int)
(assert (= n26 (* n14 n8)))
(declare-fun n27 () Int)
(assert (= n27 (* n15 n10)))
(declare-fun n28 () Int)
(assert (= n28 (* n14 n9)))
(declare-fun n29 () Int)
(assert (= n29 (* n15 n11)))
(declare-fun n30 () Int)
(assert (= n30 (* n16 n8)))
(declare-fun n31 () Int)
(assert (= n31 (* n17 n10)))
(declare-fun n32 () Int)
(assert (= n32 (* n16 n9)))
(declare-fun n33 () Int)
(assert (= n33 (* n17 n11)))
(declare-fun n34 () Int)
(assert (= n34 (+ n26 n27)))
(declare-fun n35 () Int)
(assert (= n35 (+ n28 n29)))
(declare-fun n36 () Int)
(assert (= n36 (+ n30 n31)))
(declare-fun n37 () Int)
(assert (= n37 (+ n32 n33)))
(declare-fun n38 () Int)
(assert (= n38 (* n34 n6)))
(declare-fun n39 () Int)
(assert (= n39 (* n35 n7)))
(declare-fun n40 () Int)
(assert (= n40 (* n36 n6)))
(declare-fun n41 () Int)
(assert (= n41 (* n37 n7)))
(declare-fun n42 () Int)
(assert (= n42 (+ n38 n39)))
(declare-fun n43 () Int)
(assert (= n43 (+ n40 n41)))
(declare-fun n44 () Int)
(assert (= n44 (+ n24 n42)))
(declare-fun n45 () Int)
(assert (= n45 (+ n25 n43)))
(declare-fun n46 () Int)
(assert (= n46 (* n34 n8)))
(declare-fun n47 () Int)
(assert (= n47 (* n35 n10)))
(declare-fun n48 () Int)
(assert (= n48 (* n34 n9)))
(declare-fun n49 () Int)
(assert (= n49 (* n35 n11)))
(declare-fun n50 () Int)
(assert (= n50 (* n36 n8)))
(declare-fun n51 () Int)
(assert (= n51 (* n37 n10)))
(declare-fun n52 () Int)
(assert (= n52 (* n36 n9)))
(declare-fun n53 () Int)
(assert (= n53 (* n37 n11)))
(declare-fun n54 () Int)
(assert (= n54 (+ n46 n47)))
(declare-fun n55 () Int)
(assert (= n55 (+ n48 n49)))
(declare-fun n56 () Int)
(assert (= n56 (+ n50 n51)))
(declare-fun n57 () Int)
(assert (= n57 (+ n52 n53)))
(declare-fun n58 () Int)
(assert (= n58 (* n14 n12)))
(declare-fun n59 () Int)
(assert (= n59 (* n15 n13)))
(declare-fun n60 () Int)
(assert (= n60 (* n16 n12)))
(declare-fun n61 () Int)
(assert (= n61 (* n17 n13)))
(declare-fun n62 () Int)
(assert (= n62 (+ n58 n59)))
(declare-fun n63 () Int)
(assert (= n63 (+ n60 n61)))
(declare-fun n64 () Int)
(assert (= n64 (+ n12 n62)))
(declare-fun n65 () Int)
(assert (= n65 (+ n13 n63)))
(declare-fun n66 () Int)
(assert (= n66 (* n14 n14)))
(declare-fun n67 () Int)
(assert (= n67 (* n15 n16)))
(declare-fun n68 () Int)
(assert (= n68 (* n14 n15)))
(declare-fun n69 () Int)
(assert (= n69 (* n15 n17)))
(declare-fun n70 () Int)
(assert (= n70 (* n16 n14)))
(declare-fun n71 () Int)
(assert (= n71 (* n17 n16)))
(declare-fun n72 () Int)
(assert (= n72 (* n16 n15)))
(declare-fun n73 () Int)
(assert (= n73 (* n17 n17)))
(declare-fun n74 () Int)
(assert (= n74 (+ n66 n67)))
(declare-fun n75 () Int)
(assert (= n75 (+ n68 n69)))
(declare-fun n76 () Int)
(assert (= n76 (+ n70 n71)))
(declare-fun n77 () Int)
(assert (= n77 (+ n72 n73)))
(declare-fun n78 () Int)
(assert (= n78 (* n54 n12)))
(declare-fun n79 () Int)
(assert (= n79 (* n55 n13)))
(declare-fun n80 () Int)
(assert (= n80 (* n56 n12)))
(declare-fun n81 () Int)
(assert (= n81 (* n57 n13)))
(declare-fun n82 () Int)
(assert (= n82 (+ n78 n79)))
(declare-fun n83 () Int)
(assert (= n83 (+ n80 n81)))
(declare-fun n84 () Int)
(assert (= n84 (+ n44 n82)))
(declare-fun n85 () Int)
(assert (= n85 (+ n45 n83)))
(declare-fun n86 () Int)
(assert (= n86 (* n54 n14)))
(declare-fun n87 () Int)
(assert (= n87 (* n55 n16)))
(declare-fun n88 () Int)
(assert (= n88 (* n54 n15)))
(declare-fun n89 () Int)
(assert (= n89 (* n55 n17)))
(declare-fun n90 () Int)
(assert (= n90 (* n56 n14)))
(declare-fun n91 () Int)
(assert (= n91 (* n57 n16)))
(declare-fun n92 () Int)
(assert (= n92 (* n56 n15)))
(declare-fun n93 () Int)
(assert (= n93 (* n57 n17)))
(declare-fun n94 () Int)
(assert (= n94 (+ n86 n87)))
(declare-fun n95 () Int)
(assert (= n95 (+ n88 n89)))
(declare-fun n96 () Int)
(assert (= n96 (+ n90 n91)))
(declare-fun n97 () Int)
(assert (= n97 (+ n92 n93)))
(declare-fun n98 () Int)
(assert (= n98 (* n34 n12)))
(declare-fun n99 () Int)
(assert (= n99 (* n35 n13)))
(declare-fun n100 () Int)
(assert (= n100 (* n36 n12)))
(declare-fun n101 () Int)
(assert (= n101 (* n37 n13)))
(declare-fun n102 () Int)
(assert (= n102 (+ n98 n99)))
(declare-fun n103 () Int)
(assert (= n103 (+ n100 n101)))
(declare-fun n104 () Int)
(assert (= n104 (+ n24 n102)))
(declare-fun n105 () Int)
(assert (= n105 (+ n25 n103)))
(declare-fun n106 () Int)
(assert (= n106 (* n34 n14)))
(declare-fun n107 () Int)
(assert (= n107 (* n35 n16)))
(declare-fun n108 () Int)
(assert (= n108 (* n34 n15)))
(declare-fun n109 () Int)
(assert (= n109 (* n35 n17)))
(declare-fun n110 () Int)
(assert (= n110 (* n36 n14)))
(declare-fun n111 () Int)
(assert (= n111 (* n37 n16)))
(declare-fun n112 () Int)
(assert (= n112 (* n36 n15)))
(declare-fun n113 () Int)
(assert (= n113 (* n37 n17)))
(declare-fun n114 () Int)
(assert (= n114 (+ n106 n107)))
(declare-fun n115 () Int)
(assert (= n115 (+ n108 n109)))
(declare-fun n116 () Int)
(assert (= n116 (+ n110 n111)))
(declare-fun n117 () Int)
(assert (= n117 (+ n112 n113)))
(declare-fun n118 () Int)
(assert (= n118 (* n54 n6)))
(declare-fun n119 () Int)
(assert (= n119 (* n55 n7)))
(declare-fun n120 () Int)
(assert (= n120 (* n56 n6)))
(declare-fun n121 () Int)
(assert (= n121 (* n57 n7)))
(declare-fun n122 () Int)
(assert (= n122 (+ n118 n119)))
(declare-fun n123 () Int)
(assert (= n123 (+ n120 n121)))
(declare-fun n124 () Int)
(assert (= n124 (+ n44 n122)))
(declare-fun n125 () Int)
(assert (= n125 (+ n45 n123)))
(declare-fun n126 () Int)
(assert (= n126 (* n54 n8)))
(declare-fun n127 () Int)
(assert (= n127 (* n55 n10)))
(declare-fun n128 () Int)
(assert (= n128 (* n54 n9)))
(declare-fun n129 () Int)
(assert (= n129 (* n55 n11)))
(declare-fun n130 () Int)
(assert (= n130 (* n56 n8)))
(declare-fun n131 () Int)
(assert (= n131 (* n57 n10)))
(declare-fun n132 () Int)
(assert (= n132 (* n56 n9)))
(declare-fun n133 () Int)
(assert (= n133 (* n57 n11)))
(declare-fun n134 () Int)
(assert (= n134 (+ n126 n127)))
(declare-fun n135 () Int)
(assert (= n135 (+ n128 n129)))
(declare-fun n136 () Int)
(assert (= n136 (+ n130 n131)))
(declare-fun n137 () Int)
(assert (= n137 (+ n132 n133)))
(declare-fun n138 () Int)
(assert (= n138 (* n4 n104)))
(declare-fun n139 () Int)
(assert (= n139 (* n5 n105)))
(declare-fun n140 () Int)
(assert (= n140 (+ n138 n139)))
(declare-fun n141 () Int)
(assert (= n141 (+ n3 n140)))
(declare-fun n142 () Int)
(assert (= n142 (* n4 n114)))
(declare-fun n143 () Int)
(assert (= n143 (* n5 n116)))
(declare-fun n144 () Int)
(assert (= n144 (* n4 n115)))
(declare-fun n145 () Int)
(assert (= n145 (* n5 n117)))
(declare-fun n146 () Int)
(assert (= n146 (+ n142 n143)))
(declare-fun n147 () Int)
(assert (= n147 (+ n144 n145)))
(declare-fun n148 () Int)
(assert (= n148 (* n4 n12)))
(declare-fun n149 () Int)
(assert (= n149 (* n5 n13)))
(declare-fun n150 () Int)
(assert (= n150 (+ n148 n149)))
(declare-fun n151 () Int)
(assert (= n151 (+ n3 n150)))
(declare-fun n152 () Int)
(assert (= n152 (* n4 n14)))
(declare-fun n153 () Int)
(assert (= n153 (* n5 n16)))
(declare-fun n154 () Int)
(assert (= n154 (* n4 n15)))
(declare-fun n155 () Int)
(assert (= n155 (* n5 n17)))
(declare-fun n156 () Int)
(assert (= n156 (+ n152 n153)))
(declare-fun n157 () Int)
(assert (= n157 (+ n154 n155)))
(assert (>= n141 n151))
(assert (>= n146 n156))
(assert (>= n147 n157))
(declare-fun n158 () Int)
(assert (= n158 (* n34 n84)))
(declare-fun n159 () Int)
(assert (= n159 (* n35 n85)))
(declare-fun n160 () Int)
(assert (= n160 (* n36 n84)))
(declare-fun n161 () Int)
(assert (= n161 (* n37 n85)))
(declare-fun n162 () Int)
(assert (= n162 (+ n158 n159)))
(declare-fun n163 () Int)
(assert (= n163 (+ n160 n161)))
(declare-fun n164 () Int)
(assert (= n164 (+ n24 n162)))
(declare-fun n165 () Int)
(assert (= n165 (+ n25 n163)))
(declare-fun n166 () Int)
(assert (= n166 (* n34 n94)))
(declare-fun n167 () Int)
(assert (= n167 (* n35 n96)))
(declare-fun n168 () Int)
(assert (= n168 (* n34 n95)))
(declare-fun n169 () Int)
(assert (= n169 (* n35 n97)))
(declare-fun n170 () Int)
(assert (= n170 (* n36 n94)))
(declare-fun n171 () Int)
(assert (= n171 (* n37 n96)))
(declare-fun n172 () Int)
(assert (= n172 (* n36 n95)))
(declare-fun n173 () Int)
(assert (= n173 (* n37 n97)))
(declare-fun n174 () Int)
(assert (= n174 (+ n166 n167)))
(declare-fun n175 () Int)
(assert (= n175 (+ n168 n169)))
(declare-fun n176 () Int)
(assert (= n176 (+ n170 n171)))
(declare-fun n177 () Int)
(assert (= n177 (+ n172 n173)))
(assert (>= n64 n164))
(assert (>= n65 n165))
(assert (>= n74 n174))
(assert (>= n75 n175))
(assert (>= n76 n176))
(assert (>= n77 n177))
(declare-fun n178 () Int)
(assert (= n178 (* n14 n104)))
(declare-fun n179 () Int)
(assert (= n179 (* n15 n105)))
(declare-fun n180 () Int)
(assert (= n180 (* n16 n104)))
(declare-fun n181 () Int)
(assert (= n181 (* n17 n105)))
(declare-fun n182 () Int)
(assert (= n182 (+ n178 n179)))
(declare-fun n183 () Int)
(assert (= n183 (+ n180 n181)))
(declare-fun n184 () Int)
(assert (= n184 (+ n12 n182)))
(declare-fun n185 () Int)
(assert (= n185 (+ n13 n183)))
(declare-fun n186 () Int)
(assert (= n186 (* n14 n114)))
(declare-fun n187 () Int)
(assert (= n187 (* n15 n116)))
(declare-fun n188 () Int)
(assert (= n188 (* n14 n115)))
(declare-fun n189 () Int)
(assert (= n189 (* n15 n117)))
(declare-fun n190 () Int)
(assert (= n190 (* n16 n114)))
(declare-fun n191 () Int)
(assert (= n191 (* n17 n116)))
(declare-fun n192 () Int)
(assert (= n192 (* n16 n115)))
(declare-fun n193 () Int)
(assert (= n193 (* n17 n117)))
(declare-fun n194 () Int)
(assert (= n194 (+ n186 n187)))
(declare-fun n195 () Int)
(assert (= n195 (+ n188 n189)))
(declare-fun n196 () Int)
(assert (= n196 (+ n190 n191)))
(declare-fun n197 () Int)
(assert (= n197 (+ n192 n193)))
(declare-fun n198 () Int)
(assert (= n198 (* n34 n64)))
(declare-fun n199 () Int)
(assert (= n199 (* n35 n65)))
(declare-fun n200 () Int)
(assert (= n200 (* n36 n64)))
(declare-fun n201 () Int)
(assert (= n201 (* n37 n65)))
(declare-fun n202 () Int)
(assert (= n202 (+ n198 n199)))
(declare-fun n203 () Int)
(assert (= n203 (+ n200 n201)))
(declare-fun n204 () Int)
(assert (= n204 (+ n24 n202)))
(declare-fun n205 () Int)
(assert (= n205 (+ n25 n203)))
(declare-fun n206 () Int)
(assert (= n206 (* n34 n74)))
(declare-fun n207 () Int)
(assert (= n207 (* n35 n76)))
(declare-fun n208 () Int)
(assert (= n208 (* n34 n75)))
(declare-fun n209 () Int)
(assert (= n209 (* n35 n77)))
(declare-fun n210 () Int)
(assert (= n210 (* n36 n74)))
(declare-fun n211 () Int)
(assert (= n211 (* n37 n76)))
(declare-fun n212 () Int)
(assert (= n212 (* n36 n75)))
(declare-fun n213 () Int)
(assert (= n213 (* n37 n77)))
(declare-fun n214 () Int)
(assert (= n214 (+ n206 n207)))
(declare-fun n215 () Int)
(assert (= n215 (+ n208 n209)))
(declare-fun n216 () Int)
(assert (= n216 (+ n210 n211)))
(declare-fun n217 () Int)
(assert (= n217 (+ n212 n213)))
(assert (>= n184 n204))
(assert (>= n185 n205))
(assert (>= n194 n214))
(assert (>= n195 n215))
(assert (>= n196 n216))
(assert (>= n197 n217))
(declare-fun n218 () Int)
(assert (= n218 (* n134 n84)))
(declare-fun n219 () Int)
(assert (= n219 (* n135 n85)))
(declare-fun n220 () Int)
(assert (= n220 (* n136 n84)))
(declare-fun n221 () Int)
(assert (= n221 (* n137 n85)))
(declare-fun n222 () Int)
(assert (= n222 (+ n218 n219)))
(declare-fun n223 () Int)
(assert (= n223 (+ n220 n221)))
(declare-fun n224 () Int)
(assert (= n224 (+ n124 n222)))
(declare-fun n225 () Int)
(assert (= n225 (+ n125 n223)))
(declare-fun n226 () Int)
(assert (= n226 (* n134 n94)))
(declare-fun n227 () Int)
(assert (= n227 (* n135 n96)))
(declare-fun n228 () Int)
(assert (= n228 (* n134 n95)))
(declare-fun n229 () Int)
(assert (= n229 (* n135 n97)))
(declare-fun n230 () Int)
(assert (= n230 (* n136 n94)))
(declare-fun n231 () Int)
(assert (= n231 (* n137 n96)))
(declare-fun n232 () Int)
(assert (= n232 (* n136 n95)))
(declare-fun n233 () Int)
(assert (= n233 (* n137 n97)))
(declare-fun n234 () Int)
(assert (= n234 (+ n226 n227)))
(declare-fun n235 () Int)
(assert (= n235 (+ n228 n229)))
(declare-fun n236 () Int)
(assert (= n236 (+ n230 n231)))
(declare-fun n237 () Int)
(assert (= n237 (+ n232 n233)))
(declare-fun n238 () Int)
(assert (= n238 (* n134 n64)))
(declare-fun n239 () Int)
(assert (= n239 (* n135 n65)))
(declare-fun n240 () Int)
(assert (= n240 (* n136 n64)))
(declare-fun n241 () Int)
(assert (= n241 (* n137 n65)))
(declare-fun n242 () Int)
(assert (= n242 (+ n238 n239)))
(declare-fun n243 () Int)
(assert (= n243 (+ n240 n241)))
(declare-fun n244 () Int)
(assert (= n244 (+ n124 n242)))
(declare-fun n245 () Int)
(assert (= n245 (+ n125 n243)))
(declare-fun n246 () Int)
(assert (= n246 (* n134 n74)))
(declare-fun n247 () Int)
(assert (= n247 (* n135 n76)))
(declare-fun n248 () Int)
(assert (= n248 (* n134 n75)))
(declare-fun n249 () Int)
(assert (= n249 (* n135 n77)))
(declare-fun n250 () Int)
(assert (= n250 (* n136 n74)))
(declare-fun n251 () Int)
(assert (= n251 (* n137 n76)))
(declare-fun n252 () Int)
(assert (= n252 (* n136 n75)))
(declare-fun n253 () Int)
(assert (= n253 (* n137 n77)))
(declare-fun n254 () Int)
(assert (= n254 (+ n246 n247)))
(declare-fun n255 () Int)
(assert (= n255 (+ n248 n249)))
(declare-fun n256 () Int)
(assert (= n256 (+ n250 n251)))
(declare-fun n257 () Int)
(assert (= n257 (+ n252 n253)))
(assert (>= n224 n244))
(assert (>= n225 n245))
(assert (>= n234 n254))
(assert (>= n235 n255))
(assert (>= n236 n256))
(assert (>= n237 n257))
(declare-fun n258 () Int)
(assert (= n258 (* n14 n84)))
(declare-fun n259 () Int)
(assert (= n259 (* n15 n85)))
(declare-fun n260 () Int)
(assert (= n260 (* n16 n84)))
(declare-fun n261 () Int)
(assert (= n261 (* n17 n85)))
(declare-fun n262 () Int)
(assert (= n262 (+ n258 n259)))
(declare-fun n263 () Int)
(assert (= n263 (+ n260 n261)))
(declare-fun n264 () Int)
(assert (= n264 (+ n12 n262)))
(declare-fun n265 () Int)
(assert (= n265 (+ n13 n263)))
(declare-fun n266 () Int)
(assert (= n266 (* n14 n94)))
(declare-fun n267 () Int)
(assert (= n267 (* n15 n96)))
(declare-fun n268 () Int)
(assert (= n268 (* n14 n95)))
(declare-fun n269 () Int)
(assert (= n269 (* n15 n97)))
(declare-fun n270 () Int)
(assert (= n270 (* n16 n94)))
(declare-fun n271 () Int)
(assert (= n271 (* n17 n96)))
(declare-fun n272 () Int)
(assert (= n272 (* n16 n95)))
(declare-fun n273 () Int)
(assert (= n273 (* n17 n97)))
(declare-fun n274 () Int)
(assert (= n274 (+ n266 n267)))
(declare-fun n275 () Int)
(assert (= n275 (+ n268 n269)))
(declare-fun n276 () Int)
(assert (= n276 (+ n270 n271)))
(declare-fun n277 () Int)
(assert (= n277 (+ n272 n273)))
(declare-fun n278 () Int)
(assert (= n278 (* n54 n64)))
(declare-fun n279 () Int)
(assert (= n279 (* n55 n65)))
(declare-fun n280 () Int)
(assert (= n280 (* n56 n64)))
(declare-fun n281 () Int)
(assert (= n281 (* n57 n65)))
(declare-fun n282 () Int)
(assert (= n282 (+ n278 n279)))
(declare-fun n283 () Int)
(assert (= n283 (+ n280 n281)))
(declare-fun n284 () Int)
(assert (= n284 (+ n44 n282)))
(declare-fun n285 () Int)
(assert (= n285 (+ n45 n283)))
(declare-fun n286 () Int)
(assert (= n286 (* n54 n74)))
(declare-fun n287 () Int)
(assert (= n287 (* n55 n76)))
(declare-fun n288 () Int)
(assert (= n288 (* n54 n75)))
(declare-fun n289 () Int)
(assert (= n289 (* n55 n77)))
(declare-fun n290 () Int)
(assert (= n290 (* n56 n74)))
(declare-fun n291 () Int)
(assert (= n291 (* n57 n76)))
(declare-fun n292 () Int)
(assert (= n292 (* n56 n75)))
(declare-fun n293 () Int)
(assert (= n293 (* n57 n77)))
(declare-fun n294 () Int)
(assert (= n294 (+ n286 n287)))
(declare-fun n295 () Int)
(assert (= n295 (+ n288 n289)))
(declare-fun n296 () Int)
(assert (= n296 (+ n290 n291)))
(declare-fun n297 () Int)
(assert (= n297 (+ n292 n293)))
(assert (>= n264 n284))
(assert (>= n265 n285))
(assert (>= n274 n294))
(assert (>= n275 n295))
(assert (>= n276 n296))
(assert (>= n277 n297))
(assert (> n141 n151))
(assert (<= n0 100))
(assert (<= n1 100))
(assert (<= n10 100))
(assert (<= 0 n100))
(assert (<= n100 100))
(assert (<= 0 n101))
(assert (<= n101 100))
(assert (<= 0 n102))
(assert (<= n102 100))
(assert (<= 0 n103))
(assert (<= n103 100))
(assert (<= 0 n104))
(assert (<= n104 100))
(assert (<= 0 n105))
(assert (<= n105 100))
(assert (<= 0 n106))
(assert (<= n106 100))
(assert (<= 0 n107))
(assert (<= n107 100))
(assert (<= 0 n108))
(assert (<= n108 100))
(assert (<= 0 n109))
(assert (<= n109 100))
(assert (<= n11 100))
(assert (<= 0 n110))
(assert (<= n110 100))
(assert (<= 0 n111))
(assert (<= n111 100))
(assert (<= 0 n112))
(assert (<= n112 100))
(assert (<= 0 n113))
(assert (<= n113 100))
(assert (<= 0 n114))
(assert (<= n114 100))
(assert (<= 0 n115))
(assert (<= n115 100))
(assert (<= 0 n116))
(assert (<= n116 100))
(assert (<= 0 n117))
(assert (<= n117 100))
(assert (<= 0 n118))
(assert (<= n118 100))
(assert (<= 0 n119))
(assert (<= n119 100))
(assert (<= n12 100))
(assert (<= 0 n120))
(assert (<= n120 100))
(assert (<= 0 n121))
(assert (<= n121 100))
(assert (<= 0 n122))
(assert (<= n122 100))
(assert (<= 0 n123))
(assert (<= n123 100))
(assert (<= 0 n124))
(assert (<= n124 100))
(assert (<= 0 n125))
(assert (<= n125 100))
(assert (<= 0 n126))
(assert (<= n126 100))
(assert (<= 0 n127))
(assert (<= n127 100))
(assert (<= 0 n128))
(assert (<= n128 100))
(assert (<= 0 n129))
(assert (<= n129 100))
(assert (<= n13 100))
(assert (<= 0 n130))
(assert (<= n130 100))
(assert (<= 0 n131))
(assert (<= n131 100))
(assert (<= 0 n132))
(assert (<= n132 100))
(assert (<= 0 n133))
(assert (<= n133 100))
(assert (<= 0 n134))
(assert (<= n134 100))
(assert (<= 0 n135))
(assert (<= n135 100))
(assert (<= 0 n136))
(assert (<= n136 100))
(assert (<= 0 n137))
(assert (<= n137 100))
(assert (<= 0 n138))
(assert (<= n138 100))
(assert (<= 0 n139))
(assert (<= n139 100))
(assert (<= n14 100))
(assert (<= 0 n140))
(assert (<= n140 100))
(assert (<= 0 n141))
(assert (<= n141 100))
(assert (<= 0 n142))
(assert (<= n142 100))
(assert (<= 0 n143))
(assert (<= n143 100))
(assert (<= 0 n144))
(assert (<= n144 100))
(assert (<= 0 n145))
(assert (<= n145 100))
(assert (<= 0 n146))
(assert (<= n146 100))
(assert (<= 0 n147))
(assert (<= n147 100))
(assert (<= 0 n148))
(assert (<= n148 100))
(assert (<= 0 n149))
(assert (<= n149 100))
(assert (<= n15 100))
(assert (<= 0 n150))
(assert (<= n150 100))
(assert (<= 0 n151))
(assert (<= n151 100))
(assert (<= 0 n152))
(assert (<= n152 100))
(assert (<= 0 n153))
(assert (<= n153 100))
(assert (<= 0 n154))
(assert (<= n154 100))
(assert (<= 0 n155))
(assert (<= n155 100))
(assert (<= 0 n156))
(assert (<= n156 100))
(assert (<= 0 n157))
(assert (<= n157 100))
(assert (<= 0 n158))
(assert (<= n158 100))
(assert (<= 0 n159))
(assert (<= n159 100))
(assert (<= n16 100))
(assert (<= 0 n160))
(assert (<= n160 100))
(assert (<= 0 n161))
(assert (<= n161 100))
(assert (<= 0 n162))
(assert (<= n162 100))
(assert (<= 0 n163))
(assert (<= n163 100))
(assert (<= 0 n164))
(assert (<= n164 100))
(assert (<= 0 n165))
(assert (<= n165 100))
(assert (<= 0 n166))
(assert (<= n166 100))
(assert (<= 0 n167))
(assert (<= n167 100))
(assert (<= 0 n168))
(assert (<= n168 100))
(assert (<= 0 n169))
(assert (<= n169 100))
(assert (<= n17 100))
(assert (<= 0 n170))
(assert (<= n170 100))
(assert (<= 0 n171))
(assert (<= n171 100))
(assert (<= 0 n172))
(assert (<= n172 100))
(assert (<= 0 n173))
(assert (<= n173 100))
(assert (<= 0 n174))
(assert (<= n174 100))
(assert (<= 0 n175))
(assert (<= n175 100))
(assert (<= 0 n176))
(assert (<= n176 100))
(assert (<= 0 n177))
(assert (<= n177 100))
(assert (<= 0 n178))
(assert (<= n178 100))
(assert (<= 0 n179))
(assert (<= n179 100))
(assert (<= 0 n18))
(assert (<= n18 100))
(assert (<= 0 n180))
(assert (<= n180 100))
(assert (<= 0 n181))
(assert (<= n181 100))
(assert (<= 0 n182))
(assert (<= n182 100))
(assert (<= 0 n183))
(assert (<= n183 100))
(assert (<= 0 n184))
(assert (<= n184 100))
(assert (<= 0 n185))
(assert (<= n185 100))
(assert (<= 0 n186))
(assert (<= n186 100))
(assert (<= 0 n187))
(assert (<= n187 100))
(assert (<= 0 n188))
(assert (<= n188 100))
(assert (<= 0 n189))
(assert (<= n189 100))
(assert (<= 0 n19))
(assert (<= n19 100))
(assert (<= 0 n190))
(assert (<= n190 100))
(assert (<= 0 n191))
(assert (<= n191 100))
(assert (<= 0 n192))
(assert (<= n192 100))
(assert (<= 0 n193))
(assert (<= n193 100))
(assert (<= 0 n194))
(assert (<= n194 100))
(assert (<= 0 n195))
(assert (<= n195 100))
(assert (<= 0 n196))
(assert (<= n196 100))
(assert (<= 0 n197))
(assert (<= n197 100))
(assert (<= 0 n198))
(assert (<= n198 100))
(assert (<= 0 n199))
(assert (<= n199 100))
(assert (<= n2 100))
(assert (<= 0 n20))
(assert (<= n20 100))
(assert (<= 0 n200))
(assert (<= n200 100))
(assert (<= 0 n201))
(assert (<= n201 100))
(assert (<= 0 n202))
(assert (<= n202 100))
(assert (<= 0 n203))
(assert (<= n203 100))
(assert (<= 0 n204))
(assert (<= n204 100))
(assert (<= 0 n205))
(assert (<= n205 100))
(assert (<= 0 n206))
(assert (<= n206 100))
(assert (<= 0 n207))
(assert (<= n207 100))
(assert (<= 0 n208))
(assert (<= n208 100))
(assert (<= 0 n209))
(assert (<= n209 100))
(assert (<= 0 n21))
(assert (<= n21 100))
(assert (<= 0 n210))
(assert (<= n210 100))
(assert (<= 0 n211))
(assert (<= n211 100))
(assert (<= 0 n212))
(assert (<= n212 100))
(assert (<= 0 n213))
(assert (<= n213 100))
(assert (<= 0 n214))
(assert (<= n214 100))
(assert (<= 0 n215))
(assert (<= n215 100))
(assert (<= 0 n216))
(assert (<= n216 100))
(assert (<= 0 n217))
(assert (<= n217 100))
(assert (<= 0 n218))
(assert (<= n218 100))
(assert (<= 0 n219))
(assert (<= n219 100))
(assert (<= 0 n22))
(assert (<= n22 100))
(assert (<= 0 n220))
(assert (<= n220 100))
(assert (<= 0 n221))
(assert (<= n221 100))
(assert (<= 0 n222))
(assert (<= n222 100))
(assert (<= 0 n223))
(assert (<= n223 100))
(assert (<= 0 n224))
(assert (<= n224 100))
(assert (<= 0 n225))
(assert (<= n225 100))
(assert (<= 0 n226))
(assert (<= n226 100))
(assert (<= 0 n227))
(assert (<= n227 100))
(assert (<= 0 n228))
(assert (<= n228 100))
(assert (<= 0 n229))
(assert (<= n229 100))
(assert (<= 0 n23))
(assert (<= n23 100))
(assert (<= 0 n230))
(assert (<= n230 100))
(assert (<= 0 n231))
(assert (<= n231 100))
(assert (<= 0 n232))
(assert (<= n232 100))
(assert (<= 0 n233))
(assert (<= n233 100))
(assert (<= 0 n234))
(assert (<= n234 100))
(assert (<= 0 n235))
(assert (<= n235 100))
(assert (<= 0 n236))
(assert (<= n236 100))
(assert (<= 0 n237))
(assert (<= n237 100))
(assert (<= 0 n238))
(assert (<= n238 100))
(assert (<= 0 n239))
(assert (<= n239 100))
(assert (<= 0 n24))
(assert (<= n24 100))
(assert (<= 0 n240))
(assert (<= n240 100))
(assert (<= 0 n241))
(assert (<= n241 100))
(assert (<= 0 n242))
(assert (<= n242 100))
(assert (<= 0 n243))
(assert (<= n243 100))
(assert (<= 0 n244))
(assert (<= n244 100))
(assert (<= 0 n245))
(assert (<= n245 100))
(assert (<= 0 n246))
(assert (<= n246 100))
(assert (<= 0 n247))
(assert (<= n247 100))
(assert (<= 0 n248))
(assert (<= n248 100))
(assert (<= 0 n249))
(assert (<= n249 100))
(assert (<= 0 n25))
(assert (<= n25 100))
(assert (<= 0 n250))
(assert (<= n250 100))
(assert (<= 0 n251))
(assert (<= n251 100))
(assert (<= 0 n252))
(assert (<= n252 100))
(assert (<= 0 n253))
(assert (<= n253 100))
(assert (<= 0 n254))
(assert (<= n254 100))
(assert (<= 0 n255))
(assert (<= n255 100))
(assert (<= 0 n256))
(assert (<= n256 100))
(assert (<= 0 n257))
(assert (<= n257 100))
(assert (<= 0 n258))
(assert (<= n258 100))
(assert (<= 0 n259))
(assert (<= n259 100))
(assert (<= 0 n26))
(assert (<= n26 100))
(assert (<= 0 n260))
(assert (<= n260 100))
(assert (<= 0 n261))
(assert (<= n261 100))
(assert (<= 0 n262))
(assert (<= n262 100))
(assert (<= 0 n263))
(assert (<= n263 100))
(assert (<= 0 n264))
(assert (<= n264 100))
(assert (<= 0 n265))
(assert (<= n265 100))
(assert (<= 0 n266))
(assert (<= n266 100))
(assert (<= 0 n267))
(assert (<= n267 100))
(assert (<= 0 n268))
(assert (<= n268 100))
(assert (<= 0 n269))
(assert (<= n269 100))
(assert (<= 0 n27))
(assert (<= n27 100))
(assert (<= 0 n270))
(assert (<= n270 100))
(assert (<= 0 n271))
(assert (<= n271 100))
(assert (<= 0 n272))
(assert (<= n272 100))
(assert (<= 0 n273))
(assert (<= n273 100))
(assert (<= 0 n274))
(assert (<= n274 100))
(assert (<= 0 n275))
(assert (<= n275 100))
(assert (<= 0 n276))
(assert (<= n276 100))
(assert (<= 0 n277))
(assert (<= n277 100))
(assert (<= 0 n278))
(assert (<= n278 100))
(assert (<= 0 n279))
(assert (<= n279 100))
(assert (<= 0 n28))
(assert (<= n28 100))
(assert (<= 0 n280))
(assert (<= n280 100))
(assert (<= 0 n281))
(assert (<= n281 100))
(assert (<= 0 n282))
(assert (<= n282 100))
(assert (<= 0 n283))
(assert (<= n283 100))
(assert (<= 0 n284))
(assert (<= n284 100))
(assert (<= 0 n285))
(assert (<= n285 100))
(assert (<= 0 n286))
(assert (<= n286 100))
(assert (<= 0 n287))
(assert (<= n287 100))
(assert (<= 0 n288))
(assert (<= n288 100))
(assert (<= 0 n289))
(assert (<= n289 100))
(assert (<= 0 n29))
(assert (<= n29 100))
(assert (<= 0 n290))
(assert (<= n290 100))
(assert (<= 0 n291))
(assert (<= n291 100))
(assert (<= 0 n292))
(assert (<= n292 100))
(assert (<= 0 n293))
(assert (<= n293 100))
(assert (<= 0 n294))
(assert (<= n294 100))
(assert (<= 0 n295))
(assert (<= n295 100))
(assert (<= 0 n296))
(assert (<= n296 100))
(assert (<= 0 n297))
(assert (<= n297 100))
(assert (<= n3 100))
(assert (<= 0 n30))
(assert (<= n30 100))
(assert (<= 0 n31))
(assert (<= n31 100))
(assert (<= 0 n32))
(assert (<= n32 100))
(assert (<= 0 n33))
(assert (<= n33 100))
(assert (<= 0 n34))
(assert (<= n34 100))
(assert (<= 0 n35))
(assert (<= n35 100))
(assert (<= 0 n36))
(assert (<= n36 100))
(assert (<= 0 n37))
(assert (<= n37 100))
(assert (<= 0 n38))
(assert (<= n38 100))
(assert (<= 0 n39))
(assert (<= n39 100))
(assert (<= n4 100))
(assert (<= 0 n40))
(assert (<= n40 100))
(assert (<= 0 n41))
(assert (<= n41 100))
(assert (<= 0 n42))
(assert (<= n42 100))
(assert (<= 0 n43))
(assert (<= n43 100))
(assert (<= 0 n44))
(assert (<= n44 100))
(assert (<= 0 n45))
(assert (<= n45 100))
(assert (<= 0 n46))
(assert (<= n46 100))
(assert (<= 0 n47))
(assert (<= n47 100))
(assert (<= 0 n48))
(assert (<= n48 100))
(assert (<= 0 n49))
(assert (<= n49 100))
(assert (<= n5 100))
(assert (<= 0 n50))
(assert (<= n50 100))
(assert (<= 0 n51))
(assert (<= n51 100))
(assert (<= 0 n52))
(assert (<= n52 100))
(assert (<= 0 n53))
(assert (<= n53 100))
(assert (<= 0 n54))
(assert (<= n54 100))
(assert (<= 0 n55))
(assert (<= n55 100))
(assert (<= 0 n56))
(assert (<= n56 100))
(assert (<= 0 n57))
(assert (<= n57 100))
(assert (<= 0 n58))
(assert (<= n58 100))
(assert (<= 0 n59))
(assert (<= n59 100))
(assert (<= n6 100))
(assert (<= 0 n60))
(assert (<= n60 100))
(assert (<= 0 n61))
(assert (<= n61 100))
(assert (<= 0 n62))
(assert (<= n62 100))
(assert (<= 0 n63))
(assert (<= n63 100))
(assert (<= 0 n64))
(assert (<= n64 100))
(assert (<= 0 n65))
(assert (<= n65 100))
(assert (<= 0 n66))
(assert (<= n66 100))
(assert (<= 0 n67))
(assert (<= n67 100))
(assert (<= 0 n68))
(assert (<= n68 100))
(assert (<= 0 n69))
(assert (<= n69 100))
(assert (<= n7 100))
(assert (<= 0 n70))
(assert (<= n70 100))
(assert (<= 0 n71))
(assert (<= n71 100))
(assert (<= 0 n72))
(assert (<= n72 100))
(assert (<= 0 n73))
(assert (<= n73 100))
(assert (<= 0 n74))
(assert (<= n74 100))
(assert (<= 0 n75))
(assert (<= n75 100))
(assert (<= 0 n76))
(assert (<= n76 100))
(assert (<= 0 n77))
(assert (<= n77 100))
(assert (<= 0 n78))
(assert (<= n78 100))
(assert (<= 0 n79))
(assert (<= n79 100))
(assert (<= n8 100))
(assert (<= 0 n80))
(assert (<= n80 100))
(assert (<= 0 n81))
(assert (<= n81 100))
(assert (<= 0 n82))
(assert (<= n82 100))
(assert (<= 0 n83))
(assert (<= n83 100))
(assert (<= 0 n84))
(assert (<= n84 100))
(assert (<= 0 n85))
(assert (<= n85 100))
(assert (<= 0 n86))
(assert (<= n86 100))
(assert (<= 0 n87))
(assert (<= n87 100))
(assert (<= 0 n88))
(assert (<= n88 100))
(assert (<= 0 n89))
(assert (<= n89 100))
(assert (<= n9 100))
(assert (<= 0 n90))
(assert (<= n90 100))
(assert (<= 0 n91))
(assert (<= n91 100))
(assert (<= 0 n92))
(assert (<= n92 100))
(assert (<= 0 n93))
(assert (<= n93 100))
(assert (<= 0 n94))
(assert (<= n94 100))
(assert (<= 0 n95))
(assert (<= n95 100))
(assert (<= 0 n96))
(assert (<= n96 100))
(assert (<= 0 n97))
(assert (<= n97 100))
(assert (<= 0 n98))
(assert (<= n98 100))
(assert (<= 0 n99))
(assert (<= n99 100))
(check-sat)
(exit)
